NAME : KROB149B.31687.tour
COMMENT : Cost = 0_31687
COMMENT : Found by LKH [Keld Helsgaun] Sun Sep 17 16:52:43 2017
TYPE : TOUR
DIMENSION : 149
TOUR_SECTION
1
125
46
49
12
40
85
27
15
79
130
107
115
60
116
4
14
74
100
33
81
45
66
16
120
37
61
132
32
26
7
82
9
78
145
127
51
63
44
103
128
48
84
11
52
149
87
96
143
97
135
3
73
118
59
41
89
122
21
30
68
35
54
137
113
126
108
144
34
90
25
17
106
42
55
64
20
110
13
67
47
31
65
146
104
148
6
134
75
22
112
8
114
109
58
98
147
88
28
39
71
5
43
119
56
101
38
124
72
83
62
50
133
86
95
91
123
94
129
131
138
121
76
111
70
102
23
2
80
77
139
69
57
36
10
92
19
105
99
140
142
93
18
29
141
24
117
136
53
-1
EOF
